(declare-rel fail ())
(declare-rel inv2 (Int Int Int Int Int Int Int Int))
(declare-var A Int)
(declare-var B Int)
(declare-var C Int)
(declare-var D Int)
(declare-var E Int)
(declare-var F Int)
(declare-var G Int)
(declare-var H Int)
(declare-var I Int)
(declare-var J Int)
(rule (=> (and (= J 0)
         (= I 0)
         (= F (* 3 A))
         (= E (* 6 A))
         (= D (* 5 A))
         (= C A)
         (= 2500 A))
    (inv2 J I F E D C A A)))
(rule (let ((a!1 (= H
              (ite (>= J F)
                   (ite (>= J D) (- I 2) (+ I 1))
                   (ite (>= J C) (+ I 1) (- I 2))))))
  (=> (and (inv2 J I F E D C A A) (= G (+ J 1)) a!1) (inv2 G H F E D C A A))))
(rule (=> (and (inv2 J I F E D C A A) (= J E) (not (= I 0))) fail))
(query fail)

